<number of tasks>
70

<cycle time>
527

<task times>
1 17
2 66
3 54
4 52
5 6
6 88
7 21
8 128
9 68
10 70
11 85
12 21
13 134
14 135
15 94
16 90
17 50
18 143
19 19
20 54
21 50
22 40
23 73
24 12
25 152
26 42
27 45
28 74
29 26
30 11
31 31
32 50
33 102
34 46
35 35
36 40
37 2
38 1
39 3
40 13
41 16
42 25
43 21
44 43
45 30
46 83
47 89
48 56
49 59
50 43
51 11
52 26
53 44
54 121
55 38
56 68
57 22
58 7
59 16
60 32
61 25
62 27
63 156
64 28
65 15
66 26
67 18
68 72
69 23
70 27

<precedence relations>
1,2
1,41
1,69
1,70
2,3
3,4
3,68
4,6
4,7
5,6
5,24
5,30
6,8
7,8
8,12
9,10
10,11
11,12
12,13
12,14
13,23
14,23
15,16
16,17
16,18
17,19
18,19
19,20
19,22
19,57
20,21
21,23
22,23
23,25
23,31
23,33
24,25
25,26
25,27
25,28
25,29
26,35
27,35
28,35
29,35
30,31
31,32
32,35
33,34
34,35
35,36
35,44
35,48
35,51
35,53
35,56
35,60
35,61
35,62
36,37
37,38
38,39
39,40
40,42
41,42
42,43
43,50
44,45
45,46
46,47
47,50
48,49
49,50
51,52
52,54
53,54
54,55
57,58
58,59
59,60
61,65
62,63
63,64
64,65
64,66
64,67

<setup times forward>
1,11:15
1,16:15
1,17:5
1,18:15
1,19:5
1,20:5
1,21:5
1,22:5
1,30:15
1,41:15
1,57:5
1,58:5
1,59:5
2,11:15
2,16:15
2,17:5
2,18:15
2,19:5
2,20:5
2,21:5
2,22:5
2,30:15
2,41:15
2,57:5
2,58:5
2,59:5
3,11:15
3,16:15
3,17:5
3,18:15
3,19:5
3,20:5
3,21:5
3,22:5
3,30:15
3,41:15
3,57:5
3,58:5
3,59:5
4,7:15
4,11:15
4,16:15
4,17:5
4,18:15
4,19:5
4,20:5
4,21:5
4,22:5
4,30:15
4,41:15
4,57:5
4,58:5
4,59:5
5,7:15
5,11:15
5,16:15
5,17:5
5,18:15
5,19:5
5,20:5
5,21:5
5,22:5
5,30:15
5,41:15
5,57:5
5,58:5
5,59:5
6,7:15
6,8:15
6,11:15
6,16:15
6,17:5
6,18:15
6,19:5
6,20:5
6,21:5
6,22:5
6,30:15
6,41:15
6,57:5
6,58:5
6,59:5
7,5:15
7,6:15
7,9:15
7,10:15
7,15:15
7,17:20
7,19:20
7,20:20
7,21:20
7,22:20
7,24:15
7,57:20
7,58:20
7,59:20
7,68:15
7,69:15
7,70:15
8,9:15
8,10:15
8,15:15
8,17:20
8,19:20
8,20:20
8,21:20
8,22:20
8,24:15
8,57:20
8,58:20
8,59:20
8,68:15
8,69:15
8,70:15
9,7:15
9,8:15
9,16:15
9,17:5
9,18:15
9,19:5
9,20:5
9,21:5
9,22:5
9,30:15
9,41:15
9,57:5
9,58:5
9,59:5
10,7:15
10,8:15
10,11:15
10,16:15
10,17:5
10,18:15
10,19:5
10,20:5
10,21:5
10,22:5
10,30:15
10,41:15
10,57:5
10,58:5
10,59:5
11,1:15
11,2:15
11,3:15
11,4:15
11,5:15
11,6:15
11,15:15
11,17:20
11,19:20
11,20:20
11,21:20
11,22:20
11,24:15
11,57:20
11,58:20
11,59:20
11,68:15
11,69:15
11,70:15
12,13:20
12,14:20
12,15:15
12,17:20
12,19:20
12,20:20
12,21:20
12,22:20
12,24:15
12,57:20
12,58:20
12,59:20
12,68:15
12,69:15
12,70:15
13,15:5
13,16:20
13,18:20
13,23:10
13,24:5
13,30:20
13,41:20
13,68:5
13,69:5
13,70:5
14,15:5
14,16:20
14,18:20
14,23:10
14,24:5
14,30:20
14,41:20
14,68:5
14,69:5
14,70:5
15,7:15
15,8:15
15,11:15
15,12:15
15,13:5
15,14:5
15,16:15
15,30:15
15,41:15
16,1:15
16,2:15
16,3:15
16,4:15
16,5:15
16,6:15
16,9:15
16,10:15
16,13:20
16,14:20
16,17:20
16,24:15
16,68:15
16,69:15
16,70:15
17,1:5
17,2:5
17,3:5
17,4:5
17,5:5
17,6:5
17,7:20
17,8:20
17,9:5
17,10:5
17,11:20
17,12:20
17,18:20
17,24:5
17,30:20
17,41:20
17,68:5
17,69:5
17,70:5
18,1:15
18,2:15
18,3:15
18,4:15
18,5:15
18,6:15
18,9:15
18,10:15
18,13:20
18,14:20
18,17:20
18,19:20
18,24:15
18,68:15
18,69:15
18,70:15
19,1:5
19,2:5
19,3:5
19,4:5
19,5:5
19,6:5
19,7:20
19,8:20
19,9:5
19,10:5
19,11:20
19,12:20
19,24:5
19,30:20
19,41:20
19,68:5
19,69:5
19,70:5
20,1:5
20,2:5
20,3:5
20,4:5
20,5:5
20,6:5
20,7:20
20,8:20
20,9:5
20,10:5
20,11:20
20,12:20
20,24:5
20,30:20
20,41:20
20,68:5
20,69:5
20,70:5
21,1:5
21,2:5
21,3:5
21,4:5
21,5:5
21,6:5
21,7:20
21,8:20
21,9:5
21,10:5
21,11:20
21,12:20
21,23:10
21,24:5
21,30:20
21,41:20
21,68:5
21,69:5
21,70:5
22,1:5
22,2:5
22,3:5
22,4:5
22,5:5
22,6:5
22,7:20
22,8:20
22,9:5
22,10:5
22,11:20
22,12:20
22,23:10
22,24:5
22,30:20
22,41:20
22,68:5
22,69:5
22,70:5
23,24:5
23,30:10
23,41:10
23,57:10
23,58:10
23,59:10
23,68:5
23,69:5
23,70:5
24,7:15
24,8:15
24,11:15
24,12:15
24,13:5
24,14:5
24,16:15
24,17:5
24,18:15
24,19:5
24,20:5
24,21:5
24,22:5
24,23:5
24,25:5
24,30:15
24,31:5
24,32:5
24,33:5
24,34:4
24,41:15
24,57:5
24,58:5
24,59:5
25,26:1
25,29:1
25,30:10
25,34:1
25,41:10
25,57:10
25,58:10
25,59:10
25,68:5
25,69:5
25,70:5
26,27:1
26,28:1
26,30:11
26,31:1
26,32:1
26,33:1
26,41:11
26,57:9
26,58:9
26,59:9
26,68:4
26,69:4
26,70:4
27,26:1
27,29:1
27,30:10
27,34:1
27,35:1
27,41:10
27,57:10
27,58:10
27,59:10
27,68:5
27,69:5
27,70:5
28,26:1
28,29:1
28,30:10
28,34:1
28,35:1
28,41:10
28,57:10
28,58:10
28,59:10
28,68:5
28,69:5
28,70:5
29,27:1
29,28:1
29,30:11
29,31:1
29,32:1
29,33:1
29,41:11
29,57:9
29,58:9
29,59:9
29,68:4
29,69:4
29,70:4
30,1:15
30,2:15
30,3:15
30,4:15
30,6:15
30,9:15
30,10:15
30,13:20
30,14:20
30,15:15
30,17:20
30,19:20
30,20:20
30,21:20
30,22:20
30,23:10
30,24:15
30,25:10
30,26:11
30,27:10
30,28:10
30,29:11
30,31:10
30,33:10
30,34:11
30,57:20
30,58:20
30,59:20
30,68:15
30,69:15
30,70:15
31,24:5
31,26:1
31,29:1
31,34:1
31,41:10
31,57:10
31,58:10
31,59:10
31,68:5
31,69:5
31,70:5
32,24:5
32,26:1
32,29:1
32,34:1
32,35:1
32,41:10
32,57:10
32,58:10
32,59:10
32,68:5
32,69:5
32,70:5
33,24:5
33,26:1
33,29:1
33,30:10
33,34:1
33,41:10
33,57:10
33,58:10
33,59:10
33,68:5
33,69:5
33,70:5
34,24:4
34,25:1
34,27:1
34,28:1
34,30:11
34,31:1
34,32:1
34,41:11
34,57:9
34,58:9
34,59:9
34,68:4
34,69:4
34,70:4
35,36:12
35,41:11
35,48:12
35,53:12
35,56:4
35,57:9
35,58:9
35,59:9
35,60:4
35,61:12
35,68:4
35,69:4
35,70:4
36,41:23
36,44:12
36,45:12
36,46:12
36,51:12
36,52:12
36,55:8
36,56:8
36,57:3
36,58:3
36,59:3
36,60:8
36,62:12
36,63:12
36,65:8
36,66:8
36,67:8
36,68:8
36,69:8
36,70:8
37,41:23
37,44:12
37,45:12
37,46:12
37,51:12
37,52:12
37,55:8
37,56:8
37,57:3
37,58:3
37,59:3
37,60:8
37,62:12
37,63:12
37,65:8
37,66:8
37,67:8
37,68:8
37,69:8
37,70:8
38,41:23
38,44:12
38,45:12
38,46:12
38,51:12
38,52:12
38,55:8
38,56:8
38,57:3
38,58:3
38,59:3
38,60:8
38,62:12
38,63:12
38,65:8
38,66:8
38,67:8
38,68:8
38,69:8
38,70:8
39,41:23
39,44:12
39,45:12
39,46:12
39,51:12
39,52:12
39,55:8
39,56:8
39,57:3
39,58:3
39,59:3
39,60:8
39,62:12
39,63:12
39,65:8
39,66:8
39,67:8
39,68:8
39,69:8
39,70:8
40,41:23
40,44:12
40,45:12
40,46:12
40,51:12
40,52:12
40,55:8
40,56:8
40,57:3
40,58:3
40,59:3
40,60:8
40,62:12
40,63:12
40,65:8
40,66:8
40,67:8
40,68:8
40,69:8
40,70:8
41,2:15
41,3:15
41,4:15
41,5:15
41,6:15
41,9:15
41,10:15
41,13:20
41,14:20
41,15:15
41,17:20
41,19:20
41,20:20
41,21:20
41,22:20
41,23:10
41,24:15
41,25:10
41,26:11
41,27:10
41,28:10
41,29:11
41,31:10
41,32:10
41,33:10
41,34:11
41,35:11
41,36:23
41,37:23
41,38:23
41,39:23
41,40:23
41,42:23
41,44:11
41,45:11
41,46:11
41,47:23
41,48:23
41,49:23
41,51:11
41,52:11
41,53:23
41,54:23
41,55:15
41,56:15
41,57:20
41,58:20
41,59:20
41,60:15
41,61:23
41,62:11
41,63:11
41,64:23
41,65:15
41,66:15
41,67:15
41,68:15
41,69:15
41,70:15
42,44:12
42,45:12
42,46:12
42,51:12
42,52:12
42,55:8
42,56:8
42,57:3
42,58:3
42,59:3
42,60:8
42,62:12
42,63:12
42,65:8
42,66:8
42,67:8
42,68:8
42,69:8
42,70:8
43,44:12
43,45:12
43,46:12
43,50:8
43,51:12
43,52:12
43,55:8
43,56:8
43,57:3
43,58:3
43,59:3
43,60:8
43,62:12
43,63:12
43,65:8
43,66:8
43,67:8
43,68:8
43,69:8
43,70:8
44,36:12
44,37:12
44,38:12
44,39:12
44,40:12
44,41:11
44,42:12
44,43:12
44,48:12
44,49:12
44,53:12
44,54:12
44,55:4
44,56:4
44,57:9
44,58:9
44,59:9
44,60:4
44,61:12
44,64:12
44,65:4
44,66:4
44,67:4
44,68:4
44,69:4
44,70:4
45,36:12
45,37:12
45,38:12
45,39:12
45,40:12
45,41:11
45,42:12
45,43:12
45,48:12
45,49:12
45,53:12
45,54:12
45,55:4
45,56:4
45,57:9
45,58:9
45,59:9
45,60:4
45,61:12
45,64:12
45,65:4
45,66:4
45,67:4
45,68:4
45,69:4
45,70:4
46,36:12
46,37:12
46,38:12
46,39:12
46,40:12
46,41:11
46,42:12
46,43:12
46,47:12
46,48:12
46,49:12
46,53:12
46,54:12
46,55:4
46,56:4
46,57:9
46,58:9
46,59:9
46,60:4
46,61:12
46,64:12
46,65:4
46,66:4
46,67:4
46,68:4
46,69:4
46,70:4
47,41:23
47,50:8
47,51:12
47,52:12
47,55:8
47,56:8
47,57:3
47,58:3
47,59:3
47,60:8
47,62:12
47,63:12
47,65:8
47,66:8
47,67:8
47,68:8
47,69:8
47,70:8
48,41:23
48,44:12
48,45:12
48,46:12
48,51:12
48,52:12
48,55:8
48,56:8
48,57:3
48,58:3
48,59:3
48,60:8
48,62:12
48,63:12
48,65:8
48,66:8
48,67:8
48,68:8
48,69:8
48,70:8
49,41:23
49,44:12
49,45:12
49,46:12
49,50:8
49,51:12
49,52:12
49,55:8
49,56:8
49,57:3
49,58:3
49,59:3
49,60:8
49,62:12
49,63:12
49,65:8
49,66:8
49,67:8
49,68:8
49,69:8
49,70:8
50,51:4
50,52:4
50,53:8
50,54:8
50,57:5
50,58:5
50,59:5
50,61:8
50,62:4
50,63:4
50,64:8
51,36:12
51,37:12
51,38:12
51,39:12
51,40:12
51,41:11
51,42:12
51,43:12
51,47:12
51,48:12
51,49:12
51,50:4
51,53:12
51,56:4
51,57:9
51,58:9
51,59:9
51,60:4
51,61:12
51,64:12
51,65:4
51,66:4
51,67:4
51,68:4
51,69:4
51,70:4
52,36:12
52,37:12
52,38:12
52,39:12
52,40:12
52,41:11
52,42:12
52,43:12
52,47:12
52,48:12
52,49:12
52,50:4
52,53:12
52,54:12
52,56:4
52,57:9
52,58:9
52,59:9
52,60:4
52,61:12
52,64:12
52,65:4
52,66:4
52,67:4
52,68:4
52,69:4
52,70:4
53,41:23
53,44:12
53,45:12
53,46:12
53,50:8
53,51:12
53,52:12
53,56:8
53,57:3
53,58:3
53,59:3
53,60:8
53,62:12
53,63:12
53,65:8
53,66:8
53,67:8
53,68:8
53,69:8
53,70:8
54,41:23
54,44:12
54,45:12
54,46:12
54,50:8
54,55:8
54,56:8
54,57:3
54,58:3
54,59:3
54,60:8
54,62:12
54,63:12
54,65:8
54,66:8
54,67:8
54,68:8
54,69:8
54,70:8
55,36:8
55,37:8
55,38:8
55,39:8
55,40:8
55,41:15
55,42:8
55,43:8
55,44:4
55,45:4
55,46:4
55,47:8
55,48:8
55,49:8
55,57:5
55,58:5
55,59:5
55,61:8
55,62:4
55,63:4
55,64:8
56,36:8
56,37:8
56,38:8
56,39:8
56,40:8
56,41:15
56,42:8
56,43:8
56,44:4
56,45:4
56,46:4
56,47:8
56,48:8
56,49:8
56,51:4
56,52:4
56,53:8
56,54:8
56,57:5
56,58:5
56,59:5
56,61:8
56,62:4
56,63:4
56,64:8
57,1:5
57,2:5
57,3:5
57,4:5
57,5:5
57,6:5
57,7:20
57,8:20
57,9:5
57,10:5
57,11:20
57,12:20
57,23:10
57,24:5
57,25:10
57,26:9
57,27:10
57,28:10
57,29:9
57,30:20
57,31:10
57,32:10
57,33:10
57,34:9
57,35:9
57,36:3
57,37:3
57,38:3
57,39:3
57,40:3
57,41:20
57,42:3
57,43:3
57,44:9
57,45:9
57,46:9
57,47:3
57,48:3
57,49:3
57,50:5
57,51:9
57,52:9
57,53:3
57,54:3
57,55:5
57,56:5
57,61:3
57,62:9
57,63:9
57,64:3
57,65:5
57,66:5
57,67:5
57,68:5
57,69:5
57,70:5
58,1:5
58,2:5
58,3:5
58,4:5
58,5:5
58,6:5
58,7:20
58,8:20
58,9:5
58,10:5
58,11:20
58,12:20
58,23:10
58,24:5
58,25:10
58,26:9
58,27:10
58,28:10
58,29:9
58,30:20
58,31:10
58,32:10
58,33:10
58,34:9
58,35:9
58,36:3
58,37:3
58,38:3
58,39:3
58,40:3
58,41:20
58,42:3
58,43:3
58,44:9
58,45:9
58,46:9
58,47:3
58,48:3
58,49:3
58,50:5
58,51:9
58,52:9
58,53:3
58,54:3
58,55:5
58,56:5
58,61:3
58,62:9
58,63:9
58,64:3
58,65:5
58,66:5
58,67:5
58,68:5
58,69:5
58,70:5
59,1:5
59,2:5
59,3:5
59,4:5
59,5:5
59,6:5
59,7:20
59,8:20
59,9:5
59,10:5
59,11:20
59,12:20
59,23:10
59,24:5
59,25:10
59,26:9
59,27:10
59,28:10
59,29:9
59,30:20
59,31:10
59,32:10
59,33:10
59,34:9
59,35:9
59,36:3
59,37:3
59,38:3
59,39:3
59,40:3
59,41:20
59,42:3
59,43:3
59,44:9
59,45:9
59,46:9
59,47:3
59,48:3
59,49:3
59,50:5
59,51:9
59,52:9
59,53:3
59,54:3
59,55:5
59,56:5
59,60:5
59,61:3
59,62:9
59,63:9
59,64:3
59,65:5
59,66:5
59,67:5
59,68:5
59,69:5
59,70:5
60,36:8
60,37:8
60,38:8
60,39:8
60,40:8
60,41:15
60,42:8
60,43:8
60,44:4
60,45:4
60,46:4
60,47:8
60,48:8
60,49:8
60,51:4
60,52:4
60,53:8
60,54:8
60,61:8
60,62:4
60,63:4
60,64:8
61,41:23
61,44:12
61,45:12
61,46:12
61,50:8
61,51:12
61,52:12
61,55:8
61,56:8
61,57:3
61,58:3
61,59:3
61,60:8
61,62:12
61,63:12
61,65:8
61,66:8
61,67:8
61,68:8
61,69:8
61,70:8
62,36:12
62,37:12
62,38:12
62,39:12
62,40:12
62,41:11
62,42:12
62,43:12
62,47:12
62,48:12
62,49:12
62,50:4
62,53:12
62,54:12
62,55:4
62,56:4
62,57:9
62,58:9
62,59:9
62,60:4
62,61:12
62,68:4
62,69:4
62,70:4
63,36:12
63,37:12
63,38:12
63,39:12
63,40:12
63,41:11
63,42:12
63,43:12
63,47:12
63,48:12
63,49:12
63,50:4
63,53:12
63,54:12
63,55:4
63,56:4
63,57:9
63,58:9
63,59:9
63,60:4
63,61:12
63,64:12
63,68:4
63,69:4
63,70:4
64,41:23
64,44:12
64,45:12
64,46:12
64,50:8
64,51:12
64,52:12
64,55:8
64,56:8
64,57:3
64,58:3
64,59:3
64,60:8
64,65:8
64,66:8
64,67:8
64,68:8
64,69:8
64,70:8
65,36:8
65,37:8
65,38:8
65,39:8
65,40:8
65,41:15
65,42:8
65,43:8
65,44:4
65,45:4
65,46:4
65,47:8
65,48:8
65,49:8
65,51:4
65,52:4
65,53:8
65,54:8
65,57:5
65,58:5
65,59:5
66,36:8
66,37:8
66,38:8
66,39:8
66,40:8
66,41:15
66,42:8
66,43:8
66,44:4
66,45:4
66,46:4
66,47:8
66,48:8
66,49:8
66,51:4
66,52:4
66,53:8
66,54:8
66,57:5
66,58:5
66,59:5
66,61:8
67,36:8
67,37:8
67,38:8
67,39:8
67,40:8
67,41:15
67,42:8
67,43:8
67,44:4
67,45:4
67,46:4
67,47:8
67,48:8
67,49:8
67,51:4
67,52:4
67,53:8
67,54:8
67,57:5
67,58:5
67,59:5
67,61:8
68,7:15
68,8:15
68,11:15
68,12:15
68,13:5
68,14:5
68,16:15
68,17:5
68,18:15
68,19:5
68,20:5
68,21:5
68,22:5
68,23:5
68,25:5
68,26:4
68,27:5
68,28:5
68,29:4
68,30:15
68,31:5
68,32:5
68,33:5
68,34:4
68,35:4
68,36:8
68,37:8
68,38:8
68,39:8
68,40:8
68,41:15
68,42:8
68,43:8
68,44:4
68,45:4
68,46:4
68,47:8
68,48:8
68,49:8
68,51:4
68,52:4
68,53:8
68,54:8
68,57:5
68,58:5
68,59:5
68,61:8
68,62:4
68,63:4
68,64:8
69,7:15
69,8:15
69,11:15
69,12:15
69,13:5
69,14:5
69,16:15
69,17:5
69,18:15
69,19:5
69,20:5
69,21:5
69,22:5
69,23:5
69,25:5
69,26:4
69,27:5
69,28:5
69,29:4
69,30:15
69,31:5
69,32:5
69,33:5
69,34:4
69,35:4
69,36:8
69,37:8
69,38:8
69,39:8
69,40:8
69,41:15
69,42:8
69,43:8
69,44:4
69,45:4
69,46:4
69,47:8
69,48:8
69,49:8
69,51:4
69,52:4
69,53:8
69,54:8
69,57:5
69,58:5
69,59:5
69,61:8
69,62:4
69,63:4
69,64:8
70,7:15
70,8:15
70,11:15
70,12:15
70,13:5
70,14:5
70,16:15
70,17:5
70,18:15
70,19:5
70,20:5
70,21:5
70,22:5
70,23:5
70,25:5
70,26:4
70,27:5
70,28:5
70,29:4
70,30:15
70,31:5
70,32:5
70,33:5
70,34:4
70,35:4
70,36:8
70,37:8
70,38:8
70,39:8
70,40:8
70,41:15
70,42:8
70,43:8
70,44:4
70,45:4
70,46:4
70,47:8
70,48:8
70,49:8
70,51:4
70,52:4
70,53:8
70,54:8
70,57:5
70,58:5
70,59:5
70,61:8
70,62:4
70,63:4
70,64:8

<setup times backward>
1,17:5
1,19:5
1,20:5
1,21:5
1,22:5
1,57:5
1,58:5
1,59:5
2,17:5
2,19:5
2,20:5
2,21:5
2,22:5
2,57:5
2,58:5
2,59:5
3,17:5
3,19:5
3,20:5
3,21:5
3,22:5
3,57:5
3,58:5
3,59:5
4,17:5
4,19:5
4,20:5
4,21:5
4,22:5
4,57:5
4,58:5
4,59:5
5,17:5
5,19:5
5,20:5
5,21:5
5,22:5
5,57:5
5,58:5
5,59:5
6,17:5
6,19:5
6,20:5
6,21:5
6,22:5
6,57:5
6,58:5
6,59:5
7,1:15
7,2:15
7,3:15
7,4:15
7,5:15
7,6:15
7,9:15
7,10:15
7,15:15
7,17:20
7,19:20
7,20:20
7,21:20
7,22:20
7,24:15
7,57:20
7,58:20
7,59:20
7,68:15
7,69:15
7,70:15
8,1:15
8,2:15
8,3:15
8,4:15
8,5:15
8,6:15
8,9:15
8,10:15
8,15:15
8,17:20
8,19:20
8,20:20
8,21:20
8,22:20
8,24:15
8,57:20
8,58:20
8,59:20
8,68:15
8,69:15
8,70:15
9,17:5
9,19:5
9,20:5
9,21:5
9,22:5
9,57:5
9,58:5
9,59:5
10,17:5
10,19:5
10,20:5
10,21:5
10,22:5
10,57:5
10,58:5
10,59:5
11,1:15
11,2:15
11,3:15
11,4:15
11,5:15
11,6:15
11,9:15
11,10:15
11,15:15
11,17:20
11,19:20
11,20:20
11,21:20
11,22:20
11,24:15
11,57:20
11,58:20
11,59:20
11,68:15
11,69:15
11,70:15
12,1:15
12,2:15
12,3:15
12,4:15
12,5:15
12,6:15
12,9:15
12,10:15
12,15:15
12,17:20
12,19:20
12,20:20
12,21:20
12,22:20
12,24:15
12,57:20
12,58:20
12,59:20
12,68:15
12,69:15
12,70:15
15,13:5
15,14:5
16,1:15
16,2:15
16,3:15
16,4:15
16,5:15
16,6:15
16,9:15
16,10:15
16,13:20
16,14:20
16,15:15
16,24:15
16,68:15
16,69:15
16,70:15
18,1:15
18,2:15
18,3:15
18,4:15
18,5:15
18,6:15
18,9:15
18,10:15
18,13:20
18,14:20
18,15:15
18,17:20
18,24:15
18,68:15
18,69:15
18,70:15
23,1:5
23,2:5
23,3:5
23,4:5
23,5:5
23,6:5
23,9:5
23,10:5
23,13:10
23,14:10
23,15:5
23,17:10
23,19:10
23,20:10
23,21:10
23,22:10
23,24:5
23,57:10
23,58:10
23,59:10
23,68:5
23,69:5
23,70:5
24,13:5
24,14:5
24,17:5
24,19:5
24,20:5
24,21:5
24,22:5
24,57:5
24,58:5
24,59:5
25,1:5
25,2:5
25,3:5
25,4:5
25,5:5
25,6:5
25,9:5
25,10:5
25,13:10
25,14:10
25,15:5
25,17:10
25,19:10
25,20:10
25,21:10
25,22:10
25,24:5
25,34:1
25,57:10
25,58:10
25,59:10
25,68:5
25,69:5
25,70:5
26,1:4
26,2:4
26,3:4
26,4:4
26,5:4
26,6:4
26,9:4
26,10:4
26,13:9
26,14:9
26,15:4
26,17:9
26,19:9
26,20:9
26,21:9
26,22:9
26,24:4
26,57:9
26,58:9
26,59:9
26,68:4
26,69:4
26,70:4
27,1:5
27,2:5
27,3:5
27,4:5
27,5:5
27,6:5
27,9:5
27,10:5
27,13:10
27,14:10
27,15:5
27,17:10
27,19:10
27,20:10
27,21:10
27,22:10
27,24:5
27,26:1
27,29:1
27,34:1
27,57:10
27,58:10
27,59:10
27,68:5
27,69:5
27,70:5
28,1:5
28,2:5
28,3:5
28,4:5
28,5:5
28,6:5
28,9:5
28,10:5
28,13:10
28,14:10
28,15:5
28,17:10
28,19:10
28,20:10
28,21:10
28,22:10
28,24:5
28,26:1
28,29:1
28,34:1
28,57:10
28,58:10
28,59:10
28,68:5
28,69:5
28,70:5
29,1:4
29,2:4
29,3:4
29,4:4
29,5:4
29,6:4
29,9:4
29,10:4
29,13:9
29,14:9
29,15:4
29,17:9
29,19:9
29,20:9
29,21:9
29,22:9
29,24:4
29,57:9
29,58:9
29,59:9
29,68:4
29,69:4
29,70:4
30,1:15
30,2:15
30,3:15
30,4:15
30,5:15
30,6:15
30,9:15
30,10:15
30,13:20
30,14:20
30,15:15
30,17:20
30,19:20
30,20:20
30,21:20
30,22:20
30,23:10
30,24:15
30,25:10
30,26:11
30,27:10
30,28:10
30,29:11
30,33:10
30,34:11
30,57:20
30,58:20
30,59:20
30,68:15
30,69:15
30,70:15
31,1:5
31,2:5
31,3:5
31,4:5
31,5:5
31,6:5
31,9:5
31,10:5
31,13:10
31,14:10
31,15:5
31,17:10
31,19:10
31,20:10
31,21:10
31,22:10
31,24:5
31,26:1
31,29:1
31,34:1
31,57:10
31,58:10
31,59:10
31,68:5
31,69:5
31,70:5
32,1:5
32,2:5
32,3:5
32,4:5
32,5:5
32,6:5
32,9:5
32,10:5
32,13:10
32,14:10
32,15:5
32,17:10
32,19:10
32,20:10
32,21:10
32,22:10
32,24:5
32,26:1
32,29:1
32,34:1
32,57:10
32,58:10
32,59:10
32,68:5
32,69:5
32,70:5
33,1:5
33,2:5
33,3:5
33,4:5
33,5:5
33,6:5
33,9:5
33,10:5
33,13:10
33,14:10
33,15:5
33,17:10
33,19:10
33,20:10
33,21:10
33,22:10
33,24:5
33,26:1
33,29:1
33,57:10
33,58:10
33,59:10
33,68:5
33,69:5
33,70:5
34,1:4
34,2:4
34,3:4
34,4:4
34,5:4
34,6:4
34,9:4
34,10:4
34,13:9
34,14:9
34,15:4
34,17:9
34,19:9
34,20:9
34,21:9
34,22:9
34,24:4
34,57:9
34,58:9
34,59:9
34,68:4
34,69:4
34,70:4
35,1:4
35,2:4
35,3:4
35,4:4
35,5:4
35,6:4
35,9:4
35,10:4
35,13:9
35,14:9
35,15:4
35,17:9
35,19:9
35,20:9
35,21:9
35,22:9
35,24:4
35,57:9
35,58:9
35,59:9
35,68:4
35,69:4
35,70:4
41,1:15
41,2:15
41,3:15
41,4:15
41,5:15
41,6:15
41,9:15
41,10:15
41,13:20
41,14:20
41,15:15
41,17:20
41,19:20
41,20:20
41,21:20
41,22:20
41,23:10
41,24:15
41,25:10
41,26:11
41,27:10
41,28:10
41,29:11
41,31:10
41,32:10
41,33:10
41,34:11
41,35:11
41,36:23
41,37:23
41,38:23
41,39:23
41,40:23
41,44:11
41,45:11
41,46:11
41,47:23
41,48:23
41,49:23
41,51:11
41,52:11
41,53:23
41,54:23
41,55:15
41,56:15
41,57:20
41,58:20
41,59:20
41,60:15
41,61:23
41,62:11
41,63:11
41,64:23
41,65:15
41,66:15
41,67:15
41,68:15
41,69:15
41,70:15
44,1:4
44,2:4
44,3:4
44,4:4
44,5:4
44,6:4
44,9:4
44,10:4
44,13:9
44,14:9
44,15:4
44,17:9
44,19:9
44,20:9
44,21:9
44,22:9
44,24:4
44,36:12
44,37:12
44,38:12
44,39:12
44,40:12
44,42:12
44,43:12
44,48:12
44,49:12
44,53:12
44,54:12
44,55:4
44,56:4
44,57:9
44,58:9
44,59:9
44,60:4
44,61:12
44,64:12
44,65:4
44,66:4
44,67:4
44,68:4
44,69:4
44,70:4
45,1:4
45,2:4
45,3:4
45,4:4
45,5:4
45,6:4
45,9:4
45,10:4
45,13:9
45,14:9
45,15:4
45,17:9
45,19:9
45,20:9
45,21:9
45,22:9
45,24:4
45,36:12
45,37:12
45,38:12
45,39:12
45,40:12
45,42:12
45,43:12
45,48:12
45,49:12
45,53:12
45,54:12
45,55:4
45,56:4
45,57:9
45,58:9
45,59:9
45,60:4
45,61:12
45,64:12
45,65:4
45,66:4
45,67:4
45,68:4
45,69:4
45,70:4
46,1:4
46,2:4
46,3:4
46,4:4
46,5:4
46,6:4
46,9:4
46,10:4
46,13:9
46,14:9
46,15:4
46,17:9
46,19:9
46,20:9
46,21:9
46,22:9
46,24:4
46,36:12
46,37:12
46,38:12
46,39:12
46,40:12
46,42:12
46,43:12
46,48:12
46,49:12
46,53:12
46,54:12
46,55:4
46,56:4
46,57:9
46,58:9
46,59:9
46,60:4
46,61:12
46,64:12
46,65:4
46,66:4
46,67:4
46,68:4
46,69:4
46,70:4
50,13:5
50,14:5
50,17:5
50,19:5
50,20:5
50,21:5
50,22:5
50,36:8
50,37:8
50,38:8
50,39:8
50,40:8
50,42:8
50,43:8
50,47:8
50,48:8
50,49:8
50,53:8
50,54:8
50,57:5
50,58:5
50,59:5
50,61:8
50,64:8
51,1:4
51,2:4
51,3:4
51,4:4
51,5:4
51,6:4
51,9:4
51,10:4
51,13:9
51,14:9
51,15:4
51,17:9
51,19:9
51,20:9
51,21:9
51,22:9
51,24:4
51,36:12
51,37:12
51,38:12
51,39:12
51,40:12
51,42:12
51,43:12
51,47:12
51,48:12
51,49:12
51,50:4
51,53:12
51,56:4
51,57:9
51,58:9
51,59:9
51,60:4
51,61:12
51,64:12
51,65:4
51,66:4
51,67:4
51,68:4
51,69:4
51,70:4
52,1:4
52,2:4
52,3:4
52,4:4
52,5:4
52,6:4
52,9:4
52,10:4
52,13:9
52,14:9
52,15:4
52,17:9
52,19:9
52,20:9
52,21:9
52,22:9
52,24:4
52,36:12
52,37:12
52,38:12
52,39:12
52,40:12
52,42:12
52,43:12
52,47:12
52,48:12
52,49:12
52,50:4
52,53:12
52,56:4
52,57:9
52,58:9
52,59:9
52,60:4
52,61:12
52,64:12
52,65:4
52,66:4
52,67:4
52,68:4
52,69:4
52,70:4
55,13:5
55,14:5
55,17:5
55,19:5
55,20:5
55,21:5
55,22:5
55,36:8
55,37:8
55,38:8
55,39:8
55,40:8
55,42:8
55,43:8
55,47:8
55,48:8
55,49:8
55,53:8
55,54:8
55,57:5
55,58:5
55,59:5
55,61:8
55,64:8
56,13:5
56,14:5
56,17:5
56,19:5
56,20:5
56,21:5
56,22:5
56,36:8
56,37:8
56,38:8
56,39:8
56,40:8
56,42:8
56,43:8
56,47:8
56,48:8
56,49:8
56,53:8
56,54:8
56,57:5
56,58:5
56,59:5
56,61:8
56,64:8
57,36:3
57,37:3
57,38:3
57,39:3
57,40:3
57,42:3
57,43:3
57,47:3
57,48:3
57,49:3
57,53:3
57,54:3
57,61:3
57,64:3
58,36:3
58,37:3
58,38:3
58,39:3
58,40:3
58,42:3
58,43:3
58,47:3
58,48:3
58,49:3
58,53:3
58,54:3
58,61:3
58,64:3
59,36:3
59,37:3
59,38:3
59,39:3
59,40:3
59,42:3
59,43:3
59,47:3
59,48:3
59,49:3
59,53:3
59,54:3
59,61:3
59,64:3
60,13:5
60,14:5
60,17:5
60,19:5
60,20:5
60,21:5
60,22:5
60,36:8
60,37:8
60,38:8
60,39:8
60,40:8
60,42:8
60,43:8
60,47:8
60,48:8
60,49:8
60,53:8
60,54:8
60,57:5
60,58:5
60,59:5
60,61:8
60,64:8
62,1:4
62,2:4
62,3:4
62,4:4
62,5:4
62,6:4
62,9:4
62,10:4
62,13:9
62,14:9
62,15:4
62,17:9
62,19:9
62,20:9
62,21:9
62,22:9
62,24:4
62,36:12
62,37:12
62,38:12
62,39:12
62,40:12
62,42:12
62,43:12
62,47:12
62,48:12
62,49:12
62,50:4
62,53:12
62,54:12
62,55:4
62,56:4
62,57:9
62,58:9
62,59:9
62,60:4
62,61:12
62,68:4
62,69:4
62,70:4
63,1:4
63,2:4
63,3:4
63,4:4
63,5:4
63,6:4
63,9:4
63,10:4
63,13:9
63,14:9
63,15:4
63,17:9
63,19:9
63,20:9
63,21:9
63,22:9
63,24:4
63,36:12
63,37:12
63,38:12
63,39:12
63,40:12
63,42:12
63,43:12
63,47:12
63,48:12
63,49:12
63,50:4
63,53:12
63,54:12
63,55:4
63,56:4
63,57:9
63,58:9
63,59:9
63,60:4
63,61:12
63,68:4
63,69:4
63,70:4
65,13:5
65,14:5
65,17:5
65,19:5
65,20:5
65,21:5
65,22:5
65,36:8
65,37:8
65,38:8
65,39:8
65,40:8
65,42:8
65,43:8
65,47:8
65,48:8
65,49:8
65,53:8
65,54:8
65,57:5
65,58:5
65,59:5
65,61:8
65,64:8
66,13:5
66,14:5
66,17:5
66,19:5
66,20:5
66,21:5
66,22:5
66,36:8
66,37:8
66,38:8
66,39:8
66,40:8
66,42:8
66,43:8
66,47:8
66,48:8
66,49:8
66,53:8
66,54:8
66,57:5
66,58:5
66,59:5
66,61:8
66,64:8
67,13:5
67,14:5
67,17:5
67,19:5
67,20:5
67,21:5
67,22:5
67,36:8
67,37:8
67,38:8
67,39:8
67,40:8
67,42:8
67,43:8
67,47:8
67,48:8
67,49:8
67,53:8
67,54:8
67,57:5
67,58:5
67,59:5
67,61:8
67,64:8
68,13:5
68,14:5
68,17:5
68,19:5
68,20:5
68,21:5
68,22:5
68,36:8
68,37:8
68,38:8
68,39:8
68,40:8
68,42:8
68,43:8
68,47:8
68,48:8
68,49:8
68,53:8
68,54:8
68,57:5
68,58:5
68,59:5
68,61:8
68,64:8
69,13:5
69,14:5
69,17:5
69,19:5
69,20:5
69,21:5
69,22:5
69,36:8
69,37:8
69,38:8
69,39:8
69,40:8
69,42:8
69,43:8
69,47:8
69,48:8
69,49:8
69,53:8
69,54:8
69,57:5
69,58:5
69,59:5
69,61:8
69,64:8
70,13:5
70,14:5
70,17:5
70,19:5
70,20:5
70,21:5
70,22:5
70,36:8
70,37:8
70,38:8
70,39:8
70,40:8
70,42:8
70,43:8
70,47:8
70,48:8
70,49:8
70,53:8
70,54:8
70,57:5
70,58:5
70,59:5
70,61:8
70,64:8

<end>

<optimal SALBP-1 value>
7


<rand seed>
467321153

